NAME          DCAP_3_4_2_300_SS115
ROWS
 N  OBJ
 L  CON1
 L  CON2
 L  CON3
 L  CON4
 L  CON5
 L  CON6
 L  CON7
 L  CON8
 L  CON9
 L  CON10
 L  CON11
 L  CON12
 E  CON13
 E  CON14
 E  CON15
 E  CON16
 E  CON17
 E  CON18
 E  CON19
 E  CON20
COLUMNS
    x[1,1]    OBJ       6.180167      CON1      1.000000    
    x[1,1]    CON7      -1.000000     CON8      -1.000000   
    x[1,2]    OBJ       5.039546      CON2      1.000000    
    x[1,2]    CON8      -1.000000   
    x[2,1]    OBJ       6.732585      CON3      1.000000    
    x[2,1]    CON9      -1.000000     CON10     -1.000000   
    x[2,2]    OBJ       7.443064      CON4      1.000000    
    x[2,2]    CON10     -1.000000   
    x[3,1]    OBJ       6.563535      CON5      1.000000    
    x[3,1]    CON11     -1.000000     CON12     -1.000000   
    x[3,2]    OBJ       6.054841      CON6      1.000000    
    x[3,2]    CON12     -1.000000   
    MARKER    'MARKER'                'INTORG'
    u[1,1]    OBJ       48.076654     CON1      -1.000000   
    u[1,2]    OBJ       49.466655     CON2      -1.000000   
    u[2,1]    OBJ       49.996186     CON3      -1.000000   
    u[2,2]    OBJ       32.230043     CON4      -1.000000   
    u[3,1]    OBJ       20.066487     CON5      -1.000000   
    u[3,2]    OBJ       27.484319     CON6      -1.000000   
    y[1,1,1]  OBJ       5.301713      CON7      0.832406    
    y[1,1,1]  CON13     1.000000    
    y[1,1,2]  OBJ       8.953971      CON8      1.118143    
    y[1,1,2]  CON14     1.000000    
    y[1,2,1]  OBJ       7.286533      CON7      1.016922    
    y[1,2,1]  CON15     1.000000    
    y[1,2,2]  OBJ       9.942736      CON8      1.220882    
    y[1,2,2]  CON16     1.000000    
    y[1,3,1]  OBJ       8.979604      CON7      1.134929    
    y[1,3,1]  CON17     1.000000    
    y[1,3,2]  OBJ       5.958671      CON8      0.898665    
    y[1,3,2]  CON18     1.000000    
    y[1,4,1]  OBJ       8.408222      CON7      1.354131    
    y[1,4,1]  CON19     1.000000    
    y[1,4,2]  OBJ       6.759060      CON8      0.610556    
    y[1,4,2]  CON20     1.000000    
    y[2,1,1]  OBJ       7.108367      CON9      0.832406    
    y[2,1,1]  CON13     1.000000    
    y[2,1,2]  OBJ       5.107342      CON10     1.118143    
    y[2,1,2]  CON14     1.000000    
    y[2,2,1]  OBJ       9.457460      CON9      1.016922    
    y[2,2,1]  CON15     1.000000    
    y[2,2,2]  OBJ       8.435534      CON10     1.220882    
    y[2,2,2]  CON16     1.000000    
    y[2,3,1]  OBJ       5.953525      CON9      1.134929    
    y[2,3,1]  CON17     1.000000    
    y[2,3,2]  OBJ       6.560087      CON10     0.898665    
    y[2,3,2]  CON18     1.000000    
    y[2,4,1]  OBJ       6.817245      CON9      1.354131    
    y[2,4,1]  CON19     1.000000    
    y[2,4,2]  OBJ       7.050632      CON10     0.610556    
    y[2,4,2]  CON20     1.000000    
    y[3,1,1]  OBJ       8.289684      CON11     0.832406    
    y[3,1,1]  CON13     1.000000    
    y[3,1,2]  OBJ       8.680353      CON12     1.118143    
    y[3,1,2]  CON14     1.000000    
    y[3,2,1]  OBJ       7.207621      CON11     1.016922    
    y[3,2,1]  CON15     1.000000    
    y[3,2,2]  OBJ       6.167525      CON12     1.220882    
    y[3,2,2]  CON16     1.000000    
    y[3,3,1]  OBJ       6.034869      CON11     1.134929    
    y[3,3,1]  CON17     1.000000    
    y[3,3,2]  OBJ       6.103338      CON12     0.898665    
    y[3,3,2]  CON18     1.000000    
    y[3,4,1]  OBJ       5.261510      CON11     1.354131    
    y[3,4,1]  CON19     1.000000    
    y[3,4,2]  OBJ       8.157249      CON12     0.610556    
    y[3,4,2]  CON20     1.000000    
    z[1,1]    OBJ       647.760533    CON13     1.000000    
    z[1,2]    OBJ       780.921579    CON14     1.000000    
    z[2,1]    OBJ       930.433789    CON15     1.000000    
    z[2,2]    OBJ       782.322118    CON16     1.000000    
    z[3,1]    OBJ       790.705350    CON17     1.000000    
    z[3,2]    OBJ       795.368283    CON18     1.000000    
    z[4,1]    OBJ       551.498517    CON19     1.000000    
    z[4,2]    OBJ       876.868940    CON20     1.000000    
    MARKER    'MARKER'                 'INTEND'
RHS
    RHS       CON1      -0.000000     CON2      -0.000000   
    RHS       CON3      -0.000000     CON4      -0.000000   
    RHS       CON5      -0.000000     CON6      -0.000000   
    RHS       CON7      -0.000000     CON8      -0.000000   
    RHS       CON9      -0.000000     CON10     -0.000000   
    RHS       CON11     -0.000000     CON12     -0.000000   
    RHS       CON13     1.000000      CON14     1.000000    
    RHS       CON15     1.000000      CON16     1.000000    
    RHS       CON17     1.000000      CON18     1.000000    
    RHS       CON19     1.000000      CON20     1.000000    
BOUNDS
 BV BOUND     u[1,1]  
 BV BOUND     u[1,2]  
 BV BOUND     u[2,1]  
 BV BOUND     u[2,2]  
 BV BOUND     u[3,1]  
 BV BOUND     u[3,2]  
 BV BOUND     y[1,1,1]
 BV BOUND     y[1,1,2]
 BV BOUND     y[1,2,1]
 BV BOUND     y[1,2,2]
 BV BOUND     y[1,3,1]
 BV BOUND     y[1,3,2]
 BV BOUND     y[1,4,1]
 BV BOUND     y[1,4,2]
 BV BOUND     y[2,1,1]
 BV BOUND     y[2,1,2]
 BV BOUND     y[2,2,1]
 BV BOUND     y[2,2,2]
 BV BOUND     y[2,3,1]
 BV BOUND     y[2,3,2]
 BV BOUND     y[2,4,1]
 BV BOUND     y[2,4,2]
 BV BOUND     y[3,1,1]
 BV BOUND     y[3,1,2]
 BV BOUND     y[3,2,1]
 BV BOUND     y[3,2,2]
 BV BOUND     y[3,3,1]
 BV BOUND     y[3,3,2]
 BV BOUND     y[3,4,1]
 BV BOUND     y[3,4,2]
 BV BOUND     z[1,1]  
 BV BOUND     z[1,2]  
 BV BOUND     z[2,1]  
 BV BOUND     z[2,2]  
 BV BOUND     z[3,1]  
 BV BOUND     z[3,2]  
 BV BOUND     z[4,1]  
 BV BOUND     z[4,2]  
ENDATA
